treewidth/data/Klein7RegularGraph.gr
p tw 24 84
1 2
1 13
1 21
1 3
1 4
1 5
1 11
2 13
2 18
2 24
2 4
2 14
2 16
13 18
13 19
13 3
13 8
13 12
18 19
18 20
18 22
18 7
18 16
19 20
19 21
19 23
19 12
19 15
20 21
20 22
20 4
20 10
20 17
21 23
21 4
21 9
21 11
22 24
22 7
22 8
22 9
22 10
23 3
23 6
23 7
23 9
23 15
24 4
24 6
24 8
24 9
24 14
3 5
3 6
3 7
3 8
4 6
4 17
5 7
5 10
5 11
5 16
5 17
6 8
6 15
6 17
7 9
7 16
8 10
8 12
9 11
9 14
10 11
10 12
10 17
11 12
11 14
12 14
12 15
14 15
14 16
15 16
15 17
16 17
