treewidth/data/Klein7RegularGraph.td
c width = 13, time = 0.209151
s td 9 14 24
b 1 1 3 7 8 9 12 14 16 17 18 20 21 23 24
b 2 1 3 8 12 13 14 15 16 17 18 20 21 23 24
b 3 1 3 4 8 13 14 15 16 17 18 20 21 23 24
b 4 1 2 4 13 14 16 18 24
b 5 3 4 6 8 15 17 23 24
b 6 12 13 15 18 19 20 21 23
b 7 1 3 7 8 9 10 12 14 16 17 18 20 21 24
b 8 1 3 5 7 9 10 11 12 14 16 17 21
b 9 7 8 9 10 18 20 22 24
3 4
3 5
2 3
2 6
1 2
7 8
7 9
1 7
